
<<< setup


<<< generate

Tried aggregator 1 time.
MIP Presolve eliminated 40 rows and 33 columns.
MIP Presolve modified 65 coefficients.
Reduced MIP has 726 rows, 610 columns, and 3224 nonzeros.
Reduced MIP has 532 binaries, 0 generals, 0 SOSs, and 0 indicators.
Presolve time = 0,00 sec. (1,57 ticks)
Found incumbent of value 1,000000 after 0,01 sec. (4,48 ticks)
Probing fixed 0 vars, tightened 11 bounds.
Probing time = 0,01 sec. (6,62 ticks)
Tried aggregator 1 time.
MIP Presolve modified 87 coefficients.
Reduced MIP has 726 rows, 610 columns, and 3224 nonzeros.
Reduced MIP has 532 binaries, 0 generals, 0 SOSs, and 0 indicators.
Presolve time = 0,00 sec. (1,50 ticks)
Probing time = 0,00 sec. (3,01 ticks)
Clique table members: 2168.
MIP emphasis: balance optimality and feasibility.
MIP search method: dynamic search.
Parallel mode: deterministic, using up to 4 threads.
Root relaxation solution time = 0,01 sec. (10,11 ticks)

        Nodes                                         Cuts/
   Node  Left     Objective  IInf  Best Integer    Best Bound    ItCnt     Gap

*     0+    0                            1,0000       38,0000      375     --- 
      0     0       37,1215   219        1,0000       37,1215      375     --- 
      0     0       36,8271   175        1,0000      Cuts: 47      465     --- 
      0     0       36,4421   159        1,0000     Cuts: 147      631     --- 
*     0+    0                            8,0000       36,4421      782  355,53%
      0     0       36,1886   162        8,0000     Cuts: 172      782  352,36%
      0     0       36,1281   148        8,0000     Cuts: 149      894  351,60%
      0     0       36,0132   172        8,0000     Cuts: 119     1018  350,16%
      0     0       35,5742   168        8,0000     Cuts: 157     1194  344,68%
      0     0       35,3002   177        8,0000     Cuts: 191     1342  341,25%
      0     0       35,1071   172        8,0000     Cuts: 268     1489  338,84%
      0     0       34,8059   181        8,0000     Cuts: 265     1692  335,07%
      0     0       34,6648   170        8,0000     Cuts: 243     1833  333,31%
      0     0       34,5316   182        8,0000     Cuts: 211     2008  331,65%
*     0+    0                           10,0000       34,5316     2008  245,32%
      0     0       34,3051   158       10,0000     Cuts: 276     2210  243,05%
      0     0       34,1080   168       10,0000     Cuts: 281     2401  241,08%
      0     0       33,9140   184       10,0000     Cuts: 281     2523  239,14%
      0     0       32,0389   161       10,0000     Cuts: 281     2779  220,39%
      0     0       31,5143   153       10,0000     Cuts: 222     3038  215,14%
      0     0       31,3891   141       10,0000     Cuts: 139     3220  213,89%
      0     0       31,1993   145       10,0000     Cuts: 281     3337  211,99%
      0     0       30,5162   160       10,0000     Cuts: 271     3570  205,16%
*     0+    0                           13,0000       30,5162     3570  134,74%
      0     0       30,2865   148       13,0000     Cuts: 218     3659  132,97%
*     0+    0                           14,0000       30,2865     3659  116,33%
      0     0       29,7666   155       14,0000     Cuts: 193     3938  112,62%
      0     0       29,4077   127       14,0000     Cuts: 166     4019  110,05%
      0     0       27,6828   143       14,0000     Cuts: 155     4216   97,73%
      0     0       27,1273   160       14,0000     Cuts: 181     4429   93,77%
      0     0       26,8585   143       14,0000     Cuts: 156     4643   91,85%
      0     0       26,6270   140       14,0000     Cuts: 102     4800   90,19%
      0     0       26,1180   139       14,0000     Cuts: 139     5053   86,56%
      0     0       25,9100   154       14,0000     Cuts: 251     5286   85,07%
*     0+    0                           15,0000       25,9100     5556   72,73%
      0     0       25,6426   172       15,0000     Cuts: 221     5556   70,95%
      0     0       25,5694   157       15,0000      Cuts: 74     5648   70,46%
*     0+    0                           16,0000       25,5694     5648   59,81%
      0     0       25,3103   183       16,0000     Cuts: 244     6106   58,19%
      0     0       25,2797   156       16,0000      Cuts: 68     6299   58,00%
*     0+    0                           18,0000       25,2797     6761   40,44%
      0     0       25,2608   206       18,0000      Cuts: 60     6761   33,91%
      0     0       20,7493   174       18,0000     Cuts: 146     7443   15,27%
      0     0       20,1898   158       18,0000     Cuts: 281     7554   12,17%
      0     0       20,1171   153       18,0000      Cuts: 46     7620   11,76%
      0     0       20,1171   144       18,0000  ZeroHalf: 36     7695   11,76%
      0     0       20,1171    79       18,0000   ZeroHalf: 6     7709   11,76%
      0     0       19,8173   108       18,0000      Cuts: 72     7817   10,10%
      0     0       19,7639   115       18,0000     Cuts: 178     7928    9,80%
      0     0       19,5720    74       18,0000      Cuts: 49     7985    8,73%
      0     0       19,5444    80       18,0000      Cuts: 44     8023    8,58%
      0     0       19,5444    79       18,0000  ZeroHalf: 17     8086    8,58%
      0     2       19,5444    58       18,0000       19,5444     8086    8,58%
Elapsed time = 1,95 sec. (956,63 ticks, tree = 0,01 MB, solutions = 8)
     69    45       19,1025   145       18,0000       19,2618    13263    7,01%
    274   135       19,1467   179       18,0000       19,1766    26411    6,54%
    296   153       19,1203   237       18,0000       19,1766    31557    6,54%
    374   194       19,1203   250       18,0000       19,1661    44235    6,48%
    486   243       19,0935   116       18,0000       19,1550    59106    6,42%
    495   244       19,0935   251       18,0000       19,1550    64359    6,42%
    565   279       19,0935   215       18,0000       19,1550    76416    6,42%
    630   312       19,1550   229       18,0000       19,1550    87627    6,42%
    701   352       19,0197   171       18,0000       19,1550    99965    6,42%
    986   491       19,1202    94       18,0000       19,1431   141016    6,35%
Elapsed time = 6,53 sec. (4520,22 ticks, tree = 1,74 MB, solutions = 8)
   1219   584       19,1087   203       18,0000       19,1431   199143    6,35%
   1655   768        cutoff             18,0000       19,1305   259591    6,28%
   1993   885        cutoff             18,0000       19,1305   332680    6,28%
   2278   933        cutoff             18,0000       19,1192   389477    6,22%
   2741  1071       19,0302   169       18,0000       19,1169   435537    6,21%
   3010  1159       19,0404   192       18,0000       19,1169   482337    6,21%
   3258  1209       19,1169   240       18,0000       19,1169   540417    6,21%
*  3484     0      integral     0       18,0000                 580187    0,00%

Clique cuts applied:  1
Implied bound cuts applied:  3
Flow cuts applied:  14
Mixed integer rounding cuts applied:  47
Zero-half cuts applied:  8
Lift and project cuts applied:  14
Gomory fractional cuts applied:  9

Root node processing (before b&c):
  Real time             =    1,94 sec. (951,00 ticks)
Parallel b&c, 4 threads:
  Real time             =   25,51 sec. (12457,57 ticks)
  Sync time (average)   =    3,01 sec.
  Wait time (average)   =    0,00 sec.
                          ------------
Total (root+branch&cut) =   27,45 sec. (13408,56 ticks)

<<< solve


OBJECTIVE: 18

x[1][1] = 0 x[1][2] = 1 x[1][3] = 0 x[1][4] = 1 x[1][5] = 0 x[1][6] = 0 x[1][7] = 0 x[1][8] = 0 
x[2][1] = 1 x[2][2] = 1 x[2][3] = 0 x[2][4] = 1 x[2][5] = 0 x[2][6] = 0 x[2][7] = 0 x[2][8] = 0 
x[3][1] = 1 x[3][2] = 1 x[3][3] = 0 x[3][4] = 1 x[3][5] = 0 x[3][6] = 0 x[3][7] = 0 x[3][8] = 0 
x[4][1] = 1 x[4][2] = 1 x[4][3] = 1 x[4][4] = 1 x[4][5] = 0 x[4][6] = 0 x[4][7] = 0 x[4][8] = 0 
x[5][1] = 1 x[5][2] = 1 x[5][3] = 1 x[5][4] = 1 x[5][5] = 1 x[5][6] = 1 x[5][7] = 0 x[5][8] = 0 


<<< post process


<<< done

